Route 1: 0 14 99 94 5 66 37 0
Route 2: 0 38 81 25 100 63 79 97 58 0
Route 3: 0 27 26 24 68 48 11 23 32 0
Route 4: 0 84 15 96 6 8 77 0
Route 5: 0 3 64 51 65 56 7 10 44 87 0
Route 6: 0 91 62 69 43 30 28 49 34 46 0
Route 7: 0 19 33 12 82 93 60 2 1 42 83 0
Route 8: 0 90 9 52 85 18 29 59 57 41 4 73 55 0
Route 9: 0 67 76 47 16 98 80 21 0
Route 10: 0 61 31 95 89 39 92 74 88 40 78 22 50 0
Route 11: 0 20 13 17 35 53 71 0
Route 12: 0 45 36 75 86 72 54 70 0
